50

94 45 291
92 39 282
89 13 268
89 13 352
87 31 339
82 11 360
82 9 288
81 36 280
80 4 343
80 4 336
78 18 242
71 8 235
70 25 325
67 9 286
66 28 217
63 19 283
58 29 275
52 25 295
50 5 293
48 3 300
46 23 199
36 6 192
34 15 334
33 17 352
31 3 295
30 12 335
27 12 177
26 12 329
21 9 286
21 11 246
20 1 337
19 7 326
18 4 335
18 7 254
17 8 269
12 2 192
11 4 77
11 6 337
11 1 356
11 1 216
10 2 118
10 3 151
7 1 213
7 1 308
7 3 98
6 2 24
5 3 182
5 3 278
4 2 293
3 2 228
